%BLOCK Lattice_abc
5.851732878 11.70346576 35.0000000
90.000000     90.000000   120.000000
%ENDBLOCK Lattice_abc


%BLOCK POSITIONS_ABS
Ag     -5.843300000000000     10.133200000000000     -0.017800000000000
Ag     -4.381800000000000      7.596100000000000     -0.018700000000000
Ag     -2.921500000000000      5.062600000000000     -0.021700000000000
Ag     -2.911500000000000     10.137300000000000     -0.019700000000000
Ag     -1.448900000000000      7.597600000000000     -0.021300000000000
Ag     -1.459700000000000      2.522300000000000     -0.020500000000000
Ag      1.473100000000000      2.526000000000000     -0.019200000000000
Ag      0.010800000000000      5.064400000000000     -0.019000000000000
Ag     -4.388800000000000     10.980100000000000     -2.389000000000000
Ag      2.925900000000000      3.378500000000000     -2.389000000000000
Ag     -2.925900000000000      8.446300000000001     -2.389000000000000
Ag      1.462900000000000      5.912400000000000     -2.389000000000000
Ag     -1.462900000000000      5.912400000000000     -2.389000000000000
Ag     -1.462900000000000     10.980100000000000     -2.389000000000000
Ag      0.000000000000000      8.446300000000001     -2.389000000000000
Ag      0.000000000000000      3.378500000000000     -2.389000000000000
Ag     -5.851700000000000     11.824800000000000     -4.777900000000000
Ag     -4.388800000000000      9.290900000000001     -4.777900000000000
Ag     -2.925900000000000      6.757000000000000     -4.777900000000000
Ag     -2.925900000000000     11.824800000000000     -4.777900000000000
Ag     -1.462900000000000      9.290900000000001     -4.777900000000000
Ag     -1.462900000000000      4.223100000000000     -4.777900000000000
Ag      1.462900000000000      4.223100000000000     -4.777900000000000
Ag      0.000000000000000      6.757000000000000     -4.777900000000000
Ag     -5.851700000000000     10.135500000000000     -7.166900000000000
Ag     -4.388800000000000      7.601600000000000     -7.166900000000000
Ag     -2.925900000000000      5.067700000000000     -7.166900000000000
Ag     -2.925900000000000     10.135500000000000     -7.166900000000000
Ag     -1.462900000000000      7.601600000000000     -7.166900000000000
Ag     -1.462900000000000      2.533900000000000     -7.166900000000000
Ag      1.462900000000000      2.533900000000000     -7.166900000000000
Ag      0.000000000000000      5.067700000000000     -7.166900000000000
%ENDBLOCK POSITIONS_ABS

%block ionic_constraints
1   Ag  1   1 0 0
2   Ag  1   0 1 0
3   Ag  1   0 0 1
4   Ag  2   1 0 0
5   Ag  2   0 1 0
6   Ag  2   0 0 1
7   Ag  3   1 0 0
8   Ag  3   0 1 0
9   Ag  3   0 0 1
10  Ag  4   1 0 0
11  Ag  4   0 1 0
12  Ag  4   0 0 1
13  Ag  5   1 0 0
14  Ag  5   0 1 0
15  Ag  5   0 0 1
16  Ag  6   1 0 0
17  Ag  6   0 1 0
18  Ag  6   0 0 1
19  Ag  7   1 0 0
20  Ag  7   0 1 0
21  Ag  7   0 0 1
22  Ag  8   1 0 0
23  Ag  8   0 1 0
24  Ag  8   0 0 1
25  Ag  9   1 0 0
26  Ag  9   0 1 0
27  Ag  9   0 0 1
28  Ag  10  1 0 0
29  Ag  10  0 1 0
30  Ag  10  0 0 1
31  Ag  11  1 0 0
32  Ag  11  0 1 0
33  Ag  11  0 0 1
34  Ag  12  1 0 0
35  Ag  12  0 1 0
36  Ag  12  0 0 1
37  Ag  13  1 0 0
38  Ag  13  0 1 0
39  Ag  13  0 0 1
40  Ag  14  1 0 0
41  Ag  14  0 1 0
42  Ag  14  0 0 1
43  Ag  15  1 0 0
44  Ag  15  0 1 0
45  Ag  15  0 0 1
46  Ag  16  1 0 0
47  Ag  16  0 1 0
48  Ag  16  0 0 1
49  Ag  17  1 0 0
50  Ag  17  0 1 0
51  Ag  17  0 0 1
52  Ag  18  1 0 0
53  Ag  18  0 1 0
54  Ag  18  0 0 1
55  Ag  19  1 0 0
56  Ag  19  0 1 0
57  Ag  19  0 0 1
58  Ag  20  1 0 0
59  Ag  20  0 1 0
60  Ag  20  0 0 1
61  Ag  21  1 0 0
62  Ag  21  0 1 0
63  Ag  21  0 0 1
64  Ag  22  1 0 0
65  Ag  22  0 1 0
66  Ag  22  0 0 1
67  Ag  23  1 0 0
68  Ag  23  0 1 0
69  Ag  23  0 0 1
70  Ag  24  1 0 0
71  Ag  24  0 1 0
72  Ag  24  0 0 1
73  Ag  25  1 0 0
74  Ag  25  0 1 0
75  Ag  25  0 0 1
76  Ag  26  1 0 0
77  Ag  26  0 1 0
78  Ag  26  0 0 1
79  Ag  27  1 0 0
80  Ag  27  0 1 0
81  Ag  27  0 0 1
82  Ag  28  1 0 0
83  Ag  28  0 1 0
84  Ag  28  0 0 1
85  Ag  29  1 0 0
86  Ag  29  0 1 0
87  Ag  29  0 0 1
88  Ag  30  1 0 0
89  Ag  30  0 1 0
90  Ag  30  0 0 1
91  Ag  31  1 0 0
92  Ag  31  0 1 0
93  Ag  31  0 0 1
94  Ag  32  1 0 0
95  Ag  32  0 1 0
96  Ag  32  0 0 1
%endblock ionic_constraints

%BLOCK SPECIES_POT
Ag Ag_00PBE.usp
%ENDBLOCK SPECIES_POT
FIX_COM : False
FIX_ALL_CELL : True
#KPOINTS_MP_GRID : 4 3 1
KPOINTS_MP_GRID : 8 6 1

