%block lattice_cart
2.6954645 2.6954645 0.0 
2.6954645 0.0 2.6954645
0.0 2.6954645 2.6954645
%endblock lattice_cart

%block positions_frac
Si:c 0.00 0.00 0.00
Si   0.25 0.25 0.25
%endblock positions_frac

%block species_pot
Si:c  2|1.8|3.675|5.512|7.35|30UU:31UU:32LGG{1s1}[]
Si    2|1.8|3.675|5.512|7.35|30UU:31UU:32LGG[]
%endblock species_pot

%block kpoint_list
  -0.250000  -0.250000  -0.250000   0.2500000
   0.250000  -0.250000  -0.250000   0.7500000
%endblock kpoint_list

symmetry_generate
